8,1,1,1,2,1,5,1,4,1,6,1,4,8;3,1,8,2,7,2,7,3,3,2,1,2,4,2,2,2,5,2,6,2;8,3,3,3,1,3,2,3,4,3,5,3,6,3,6,6;8,4,7,4,3,4,1,4,2,4,4,4,4,5,5,4,6,4;8,5,7,5,3,5,1,5,2,5,5,5,6,5;8,6,7,6,3,6,1,6,4,6,2,6,5,6;8,7,7,7,3,7,1,7,4,7,2,7,6,7,5,7;7,1,8,8,7,8,3,8,1,8,2,8,6,8,5,8;
